(declare-const x9 Bool)
(declare-const x14 Int)
(declare-const x Int)
(declare-const x18 Bool)
(declare-const x1 Bool)
(declare-fun i () Int)
(declare-fun n () Int)
(assert (>= 0 x14))
(assert x18)
(assert x9)
(assert (> x14 (+ 1 (* n x14))))
(assert (= 0 (+ (* i n) (* x14 x))))
(assert x1)
(check-sat)
